24° run output:
{
    "Function": "kroA500.tsp",
    "Problem dimension": [
        206,
        486,
        52,
        455,
        483,
        436,
        186,
        8,
        291,
        96,
        295,
        443,
        126,
        292,
        27,
        71,
        85,
        431,
        301,
        382,
        311,
        4,
        70,
        408,
        469,
        362,
        91,
        17,
        495,
        225,
        44,
        319,
        64,
        344,
        157,
        322,
        482,
        223,
        20,
        118,
        340,
        105,
        463,
        66,
        389,
        441,
        254,
        175,
        208,
        290,
        297,
        90,
        100,
        429,
        87,
        145,
        266,
        271,
        228,
        488,
        249,
        7,
        417,
        255,
        38,
        413,
        237,
        378,
        239,
        315,
        117,
        418,
        146,
        261,
        396,
        468,
        92,
        427,
        304,
        450,
        399,
        484,
        453,
        32,
        363,
        169,
        380,
        314,
        184,
        491,
        173,
        348,
        451,
        54,
        2,
        320,
        35,
        29,
        112,
        251,
        490,
        166,
        400,
        196,
        187,
        415,
        120,
        368,
        276,
        302,
        405,
        161,
        67,
        84,
        364,
        164,
        60,
        313,
        108,
        392,
        122,
        134,
        104,
        61,
        49,
        42,
        201,
        198,
        499,
        263,
        353,
        50,
        259,
        31,
        457,
        296,
        125,
        256,
        464,
        14,
        159,
        244,
        351,
        200,
        332,
        497,
        410,
        6,
        373,
        446,
        80,
        171,
        189,
        194,
        310,
        331,
        478,
        240,
        113,
        281,
        22,
        202,
        264,
        236,
        247,
        209,
        456,
        345,
        414,
        496,
        323,
        57,
        426,
        409,
        465,
        328,
        330,
        150,
        480,
        11,
        370,
        153,
        461,
        477,
        218,
        494,
        403,
        36,
        355,
        358,
        350,
        97,
        193,
        476,
        242,
        317,
        369,
        452,
        433,
        65,
        162,
        326,
        137,
        152,
        371,
        207,
        156,
        381,
        230,
        191,
        383,
        275,
        16,
        116,
        444,
        253,
        110,
        339,
        447,
        289,
        205,
        111,
        5,
        334,
        257,
        199,
        471,
        147,
        448,
        94,
        160,
        384,
        170,
        367,
        279,
        115,
        59,
        424,
        37,
        138,
        217,
        144,
        158,
        12,
        449,
        167,
        30,
        46,
        18,
        493,
        270,
        467,
        459,
        472,
        55,
        142,
        272,
        466,
        133,
        203,
        293,
        299,
        268,
        498,
        34,
        212,
        43,
        438,
        273,
        435,
        179,
        68,
        479,
        73,
        395,
        180,
        135,
        485,
        204,
        234,
        286,
        422,
        288,
        33,
        430,
        258,
        72,
        316,
        136,
        101,
        24,
        28,
        15,
        0,
        102,
        154,
        342,
        99,
        386,
        39,
        425,
        285,
        25,
        77,
        165,
        103,
        241,
        243,
        183,
        356,
        391,
        75,
        41,
        321,
        210,
        83,
        305,
        366,
        474,
        250,
        163,
        442,
        327,
        428,
        221,
        140,
        238,
        220,
        21,
        489,
        462,
        114,
        404,
        78,
        360,
        432,
        53,
        139,
        10,
        45,
        182,
        127,
        192,
        176,
        213,
        109,
        401,
        132,
        473,
        265,
        388,
        423,
        406,
        231,
        19,
        324,
        56,
        439,
        79,
        26,
        420,
        88,
        211,
        214,
        460,
        325,
        123,
        312,
        262,
        274,
        174,
        188,
        343,
        421,
        278,
        397,
        269,
        51,
        287,
        329,
        222,
        58,
        277,
        168,
        338,
        390,
        76,
        267,
        215,
        347,
        294,
        440,
        148,
        283,
        47,
        40,
        246,
        248,
        177,
        492,
        224,
        82,
        129,
        181,
        128,
        195,
        359,
        252,
        141,
        48,
        379,
        398,
        393,
        185,
        434,
        172,
        385,
        337,
        445,
        232,
        487,
        352,
        470,
        394,
        155,
        95,
        86,
        365,
        376,
        349,
        402,
        333,
        1,
        357,
        9,
        387,
        335,
        260,
        354,
        69,
        227,
        131,
        282,
        341,
        419,
        411,
        216,
        346,
        336,
        416,
        454,
        106,
        374,
        226,
        107,
        178,
        81,
        121,
        300,
        372,
        143,
        437,
        306,
        481,
        377,
        229,
        74,
        458,
        309,
        298,
        197,
        475,
        130,
        62,
        235,
        63,
        233,
        23,
        13,
        303,
        219,
        412,
        98,
        361,
        245,
        407,
        3,
        119,
        151,
        93,
        308,
        375,
        284,
        149,
        89,
        124,
        318,
        307,
        280,
        190
    ],
    "Global Optimum": 0,
    "Algorithm": "Genetic algorithm",
    "Parameters": {
        "population": 30,
        "offspring": 30,
        "mutation probability": 0.002,
        "crossover probability": 0.9
    },
    "Fitness": 644810,
    "Solution": [
        206,
        486,
        52,
        455,
        483,
        436,
        186,
        8,
        291,
        96,
        295,
        443,
        126,
        292,
        27,
        71,
        85,
        431,
        301,
        382,
        311,
        4,
        70,
        408,
        469,
        362,
        91,
        17,
        495,
        225,
        44,
        319,
        64,
        344,
        157,
        322,
        482,
        223,
        20,
        118,
        340,
        105,
        463,
        66,
        389,
        441,
        254,
        175,
        208,
        290,
        297,
        90,
        100,
        429,
        87,
        145,
        266,
        271,
        228,
        488,
        249,
        7,
        417,
        255,
        38,
        413,
        237,
        378,
        239,
        315,
        117,
        418,
        146,
        261,
        396,
        468,
        92,
        427,
        304,
        450,
        399,
        484,
        453,
        32,
        363,
        169,
        380,
        314,
        184,
        491,
        173,
        348,
        451,
        54,
        2,
        320,
        35,
        29,
        112,
        251,
        490,
        166,
        400,
        196,
        187,
        415,
        120,
        368,
        276,
        302,
        405,
        161,
        67,
        84,
        364,
        164,
        60,
        313,
        108,
        392,
        122,
        134,
        104,
        61,
        49,
        42,
        201,
        198,
        499,
        263,
        353,
        50,
        259,
        31,
        457,
        296,
        125,
        256,
        464,
        14,
        159,
        244,
        351,
        200,
        332,
        497,
        410,
        6,
        373,
        446,
        80,
        171,
        189,
        194,
        310,
        331,
        478,
        240,
        113,
        281,
        22,
        202,
        264,
        236,
        247,
        209,
        456,
        345,
        414,
        496,
        323,
        57,
        426,
        409,
        465,
        328,
        330,
        150,
        480,
        11,
        370,
        153,
        461,
        477,
        218,
        494,
        403,
        36,
        355,
        358,
        350,
        97,
        193,
        476,
        242,
        317,
        369,
        452,
        433,
        65,
        162,
        326,
        137,
        152,
        371,
        207,
        156,
        381,
        230,
        191,
        383,
        275,
        16,
        116,
        444,
        253,
        110,
        339,
        447,
        289,
        205,
        111,
        5,
        334,
        257,
        199,
        471,
        147,
        448,
        94,
        160,
        384,
        170,
        367,
        279,
        115,
        59,
        424,
        37,
        138,
        217,
        144,
        158,
        12,
        449,
        167,
        30,
        46,
        18,
        493,
        270,
        467,
        459,
        472,
        55,
        142,
        272,
        466,
        133,
        203,
        293,
        299,
        268,
        498,
        34,
        212,
        43,
        438,
        273,
        435,
        179,
        68,
        479,
        73,
        395,
        180,
        135,
        485,
        204,
        234,
        286,
        422,
        288,
        33,
        430,
        258,
        72,
        316,
        136,
        101,
        24,
        28,
        15,
        0,
        102,
        154,
        342,
        99,
        386,
        39,
        425,
        285,
        25,
        77,
        165,
        103,
        241,
        243,
        183,
        356,
        391,
        75,
        41,
        321,
        210,
        83,
        305,
        366,
        474,
        250,
        163,
        442,
        327,
        428,
        221,
        140,
        238,
        220,
        21,
        489,
        462,
        114,
        404,
        78,
        360,
        432,
        53,
        139,
        10,
        45,
        182,
        127,
        192,
        176,
        213,
        109,
        401,
        132,
        473,
        265,
        388,
        423,
        406,
        231,
        19,
        324,
        56,
        439,
        79,
        26,
        420,
        88,
        211,
        214,
        460,
        325,
        123,
        312,
        262,
        274,
        174,
        188,
        343,
        421,
        278,
        397,
        269,
        51,
        287,
        329,
        222,
        58,
        277,
        168,
        338,
        390,
        76,
        267,
        215,
        347,
        294,
        440,
        148,
        283,
        47,
        40,
        246,
        248,
        177,
        492,
        224,
        82,
        129,
        181,
        128,
        195,
        359,
        252,
        141,
        48,
        379,
        398,
        393,
        185,
        434,
        172,
        385,
        337,
        445,
        232,
        487,
        352,
        470,
        394,
        155,
        95,
        86,
        365,
        376,
        349,
        402,
        333,
        1,
        357,
        9,
        387,
        335,
        260,
        354,
        69,
        227,
        131,
        282,
        341,
        419,
        411,
        216,
        346,
        336,
        416,
        454,
        106,
        374,
        226,
        107,
        178,
        81,
        121,
        300,
        372,
        143,
        437,
        306,
        481,
        377,
        229,
        74,
        458,
        309,
        298,
        197,
        475,
        130,
        62,
        235,
        63,
        233,
        23,
        13,
        303,
        219,
        412,
        98,
        361,
        245,
        407,
        3,
        119,
        151,
        93,
        308,
        375,
        284,
        149,
        89,
        124,
        318,
        307,
        280,
        190
    ],
    "Nb of functions evaluations": 50010,
    "Computational time in seconds": 361.6423511505127,
    "Stopping criterion in evaluations": 50000
}